c --- [ banner ] -------------------------------------------------------------
c 
c CaDiCaL Radically Simplified CDCL SAT Solver
c Copyright (c) 2016-2021 A. Biere, M. Fleury, N. Froleyks
c 
c Version 1.5.2 a5f15211db36c3956764e18194dd5bd63bf3b5e6
c g++ (GCC) 9.3.0 -Wall -Wextra -O3 -DNDEBUG
c Fri Oct 21 01:27:37 EDT 2022 Linux gra-login3 3.10.0-1160.66.1.el7.x86_64 x86_64
c 
c --- [ limit ] --------------------------------------------------------------
c 
c setting conflict limit to 200000 conflicts (due to '200000')
c 
c --- [ parsing input ] ------------------------------------------------------
c 
c reading DIMACS file from '33.cubes4713.adj'
c opening file to read '33.cubes4713.adj'
c found 'p cnf 6160 1595478' header
c parsed 1595478 clauses in 19.03 seconds process time
c closing file '33.cubes4713.adj'
c after reading 1457566796 bytes 1390.0 MB
c 
c --- [ options ] ------------------------------------------------------------
c 
c all options are set to their default value
c 
c --- [ solving ] ------------------------------------------------------------
c 
c time measured in process time since initialization
c 
c  seconds    reductions  redundant   irredundant
c          MB     restarts       trail       variables
c            level   conflicts       glue         remaining
c 
c * 19.04 1376  0 0   0    0    0  0% 0 1595422 2418 39%
c { 19.85 1422  0 0   0    0    0  0% 0 1595422 2418 39%
c i 22.28 1501 536 0   5   40   39 33% 17 1595422 2336 38%
c i 23.69 1510 296 0  10   85   75 29% 21 1595422 2335 38%
c i 24.02 1510 234 0  13  114   98 28% 19 1595422 2334 38%
c i 24.24 1510 216 0  15  129  111 28% 22 1595422 2333 38%
c i 24.63 1512 205 0  17  175  145 26% 21 1595422 2332 38%
c i 25.14 1514 199 0  25  198  165 26% 27 1595422 2331 38%
c i 25.16 1514 197 0  25  200  166 26% 27 1595422 2330 38%
c i 25.18 1515 197 0  26  202  167 26% 26 1595422 2329 38%
c i 25.48 1515 190 0  29  215  179 26% 27 1595422 2328 38%
c i 25.53 1515 183 0  31  225  186 27% 28 1595422 2327 38%
c i 25.80 1515 170 0  37  249  206 27% 27 1595422 2326 38%
c i 25.84 1515 168 0  37  262  215 27% 27 1595422 2322 38%
c - 29.98 1431 159 1  46  302  244 27% 30 295591 2322 38%
c i 30.15 1361 157 1  47  306  247 27% 30 295591 2321 38%
c i 30.15 1361 156 1  47  307  247 27% 30 295591 2320 38%
c i 30.28 1361 146 1  47  337  272 27% 29 295591 2317 38%
c i 30.30 1361 140 1  47  354  288 27% 29 295591 2316 38%
c i 30.31 1361 140 1  47  355  288 27% 29 295591 2315 38%
c 
c  seconds     reductions  redundant   irredundant
c          MB      restarts       trail       variables
c             level   conflicts       glue         remaining
c 
c i 30.35 1362 138 1  47  364  295 28% 29 295591 2314 38%
c i 30.42 1362 134 1  47  384  314 28% 29 295591 2313 38%
c i 30.43 1362 133 1  47  389  318 28% 29 295591 2312 38%
c i 30.55 1362 128 1  49  424  346 28% 29 295591 2311 38%
c i 30.61 1362 125 1  51  438  358 28% 29 295591 2310 38%
c i 30.67 1362 123 1  51  446  363 28% 29 295591 2309 37%
c i 30.70 1362 122 1  52  455  368 28% 29 295591 2308 37%
c i 30.71 1362 122 1  52  457  369 28% 29 295591 2307 37%
c i 30.72 1362 121 1  52  460  371 28% 29 295591 2306 37%
c i 30.82 1361 119 1  52  473  381 28% 29 295591 2305 37%
c i 30.86 1361 118 1  52  478  385 28% 29 295591 2304 37%
c i 30.87 1361 117 1  52  481  387 28% 29 295591 2303 37%
c i 30.89 1361 114 1  52  502  407 28% 29 295591 2302 37%
c i 30.94 1361 111 1  52  525  423 28% 29 295591 2301 37%
c i 30.99 1361 109 1  52  537  430 28% 29 295591 2300 37%
c i 31.09 1361 106 1  52  575  463 28% 29 295591 2299 37%
c i 31.10 1361 105 1  52  578  465 28% 29 295591 2298 37%
c i 31.19 1361 100 1  52  625  509 28% 29 295591 2297 37%
c i 31.26 1361 94 1  53  691  555 28% 28 295591 2296 37%
c i 31.35 1362 94 1  53  707  569 28% 29 295591 2295 37%
c 
c  seconds    reductions  redundant   irredundant
c          MB     restarts       trail       variables
c            level   conflicts       glue         remaining
c 
c i 31.52 1361 93 1  55  724  584 28% 29 295591 2294 37%
c i 31.58 1362 92 1  55  741  597 28% 29 295591 2293 37%
c i 31.67 1362 89 1  55  768  619 28% 28 295591 2292 37%
c i 31.75 1362 90 1  55  780  628 28% 28 295591 2291 37%
c i 31.81 1362 90 1  56  787  634 28% 29 295591 2290 37%
c i 31.88 1361 91 1  56  800  643 28% 28 295591 2286 37%
c i 32.16 1362 92 1  59  827  667 28% 29 295591 2285 37%
c i 32.30 1362 92 1  63  841  679 28% 29 295591 2284 37%
c i 32.45 1362 90 1  64  864  696 28% 28 295591 2283 37%
c i 32.53 1362 90 1  64  873  704 28% 29 295591 2282 37%
c i 32.82 1362 89 1  79  932  756 28% 29 295591 2281 37%
c i 32.85 1362 88 1  79  953  776 28% 30 295591 2280 37%
c i 32.87 1362 88 1  80  973  792 28% 30 295591 2279 37%
c i 32.92 1362 88 1  83  984  801 28% 30 295591 2278 37%
c i 32.94 1362 88 1  84  988  802 28% 30 295591 2275 37%
c } 33.03 1362 89 1  86 1000  814 28% 30 295591 2275 37%
c [ 33.03 1362  0 1  86 1000  814  0% 0 295591 2275 37%
c O 33.03 1362 79 1  86 1002  815 22% 2 295591 2275 37%
c i 33.03 1362 79 1  86 1002  815 22% 2 295591 2241 36%
c i 33.17 1362 19 1  86 1030  839 30% 11 295591 2240 36%
c 
c  seconds    reductions  redundant   irredundant
c          MB     restarts       trail       variables
c            level   conflicts       glue         remaining
c 
c - 33.88 1487 17 2  86 1185  830 32% 14 294899 2240 36%
c i 34.02 1486 18 2  86 1257  876 32% 14 294899 2239 36%
c i 34.06 1487 18 2  86 1338  916 32% 15 294899 2238 36%
c i 34.07 1486 18 2  86 1345  920 32% 15 294899 2237 36%
c i 34.19 1487 20 2  86 1677 1109 32% 17 294899 2236 36%
c i 34.21 1487 20 2  86 1695 1122 32% 17 294899 2235 36%
c i 34.44 1487 25 2  87 2197 1438 31% 21 294899 2234 36%
c - 34.95 1485 24 3  87 2511 1234 32% 21 294881 2234 36%
c i 35.31 1485 24 3  87 2645 1297 52% 21 294881 2233 36%
c ] 35.43 1485 23 3  87 3000 1512 53% 20 294881 2233 36%
c { 35.43 1485 89 3  87 3000 1512 76% 30 294881 2233 36%
c F 35.45 1485 89 3  89 3007 1519 76% 30 294881 2233 36%
c i 35.74 1485 78 3  91 3225 1704 71% 29 294881 2232 36%
c i 35.78 1485 75 3  91 3306 1771 70% 28 294881 2231 36%
c i 35.81 1485 73 3  91 3340 1797 69% 28 294881 2230 36%
c i 36.08 1485 67 3  94 3583 1965 65% 27 294881 2229 36%
c i 36.72 1485 58 3  94 4088 2357 60% 25 294881 2228 36%
c - 37.28 1483 56 4  95 4277 1807 59% 25 294863 2228 36%
c i 37.76 1484 49 4  95 4776 2130 57% 24 294863 2227 36%
c i 37.99 1484 47 4  95 4995 2255 56% 23 294863 2226 36%
c 
c  seconds    reductions  redundant   irredundant
c          MB     restarts       trail       variables
c            level   conflicts       glue         remaining
c 
c d 38.47 1484 47 4  95 5000 2255 56% 23 273443 2216 36%
c 3 38.49 1483 47 4  95 5000 3353 56% 23 273435 2216 36%
c 3 38.50 1484 47 4  95 5000 3522 56% 23 273435 2216 36%
c 2 38.56 1483 47 4  95 5000 3521 56% 23 273435 2215 36%
c p 43.51 1483 47 4  95 5000 7177 56% 23 273435 2167 35%
c d 43.96 1484 47 4  95 5000 6961 56% 23 258122 2162 35%
c # 44.86 1483 40 4  99 6008 7734 54% 21 258122 2162 35%
c - 45.37 1363 38 5  99 6481 2632 54% 21 258122 2162 35%
c } 46.59 1363 38 5 149 7000 3004 53% 21 258122 2162 35%
c [ 46.59 1363 23 5 149 7000 3004 53% 20 258122 2162 35%
c - 47.47 1363 24 6 150 9026 2905 51% 21 258122 2162 35%
c I 48.12 1363 24 6 151 10009 3435 50% 21 258122 2162 35%
c - 50.68 1364 26 7 153 11993 3342 49% 22 258122 2162 35%
c ] 52.63 1363 25 7 154 15000 5456 50% 21 258122 2162 35%
c { 52.63 1363 38 7 154 15000 5456 53% 21 258122 2162 35%
c 3 52.66 1363 38 7 154 15000 6708 53% 21 258120 2162 35%
c 3 52.66 1363 38 7 154 15000 6907 53% 21 258120 2162 35%
c p 56.43 1363 38 7 154 15000 10702 53% 21 258120 2160 35%
c B 56.66 1363 38 7 154 15010 10712 53% 21 258120 2160 35%
c - 57.56 1365 37 8 164 15382 4235 52% 21 258114 2160 35%
c 
c  seconds    reductions   redundant   irredundant
c          MB     restarts        trail       variables
c            level    conflicts       glue         remaining
c 
c s 61.57 1365 34 8 376 18732 6342 51% 21 256436 2160 35%
c v 65.04 1365 34 8 376 18732 6342 51% 21 256405 2160 35%
c t 65.13 1365 34 8 376 18732 6328 51% 21 256389 2160 35%
c e 66.05 1367 34 8 376 18732 6162 51% 21 254235 927 15%
c s 66.16 1367 34 8 376 18732 6162 51% 21 253709 927 15%
c - 67.77 1368 33 9 376 19195 4436 69% 21 253709 927 15%
c W 69.88 1368 33 9 473 21012 5720 67% 21 253709 927 15%
c - 73.87 1368 32 10 609 23410 5293 68% 21 253709 927 15%
c F 76.91 1368 30 10 710 28014 8192 68% 20 253709 927 15%
c - 77.14 1368 30 11 712 28046 5515 68% 20 253709 927 15%
c 3 77.95 1368 29 11 723 30000 7488 68% 20 253709 927 15%
c p 81.09 1368 29 11 723 30000 9771 68% 20 253709 926 15%
c } 81.56 1368 28 11 723 31002 10344 68% 19 253709 926 15%
c [ 81.56 1368 25 11 723 31002 10344 120% 21 253709 926 15%
c ] 81.57 1368 25 11 723 31045 10365 119% 21 253709 926 15%
c 1 81.57 1368 25 11 723 31045 10365 119% 21 253709 926 15%
c 
c --- [ writing output ] -----------------------------------------------------
c 
c writing simplified CNF to DIMACS file 'simp/33.cubes4713.adj.simp1'
c * 81.57 1368 25 11 723 31045 10365 119% 21 253709 926 15%
c opening file to write 'simp/33.cubes4713.adj.simp1'
c writing 'p cnf 6160 253706' header
c closing file 'simp/33.cubes4713.adj.simp1'
c after writing 116830749 bytes 111.4 MB
c wrote 253706 clauses in 0.86 seconds process time
c 
c --- [ writing extension ] --------------------------------------------------
c 
c writing extension stack to 'simp/33.cubes4713.adj.ext1'
c opening file to write 'simp/33.cubes4713.adj.ext1'
c closing file 'simp/33.cubes4713.adj.ext1'
c after writing 79671 bytes 0.1 MB
c wrote 3623 witnesses in 0.00 seconds process time
c 
c --- [ result ] -------------------------------------------------------------
c 
s SATISFIABLE
c 
c --- [ run-time profiling ] -------------------------------------------------
c 
c process time taken by individual solving procedures
c (percentage relative to process time for solving)
c 
c        44.09   70.51% search
c        34.47   55.13% unstable
c        19.03   30.43% parse
c        18.44   29.49% simplify
c        11.77   18.83% probe
c         8.46   13.52% stable
c         3.53    5.64% vivify
c         1.71    2.73% elim
c         0.82    1.31% lucky
c         0.35    0.56% walk
c         0.21    0.34% subsume
c         0.12    0.19% ternary
c   =================================
c        62.54   75.86% solve
c 
c last line shows process time for solving
c (percentage relative to total process time)
c 
c --- [ statistics ] ---------------------------------------------------------
c 
c chronological:              6123        19.72 %  of conflicts
c conflicts:                 31045       496.44    per second
c decisions:                 78650      1257.68    per second
c eliminated:                 1233        20.02 %  of all variables
c fixed:                       842        13.67 %  of all variables
c learned:                   30281        97.54 %  per conflict
c learned_lits:            5174998       100.00 %  learned literals
c minimized:                     0         0.00 %  learned literals
c shrunken:                3585287        69.28 %  learned literals
c minishrunken:             297916         5.76 %  learned literals
c propagations:            3759361         0.06 M  per second
c reduced:                   13481        43.42 %  per conflict
c rephased:                      7      4435.00    interval
c restarts:                    723        42.94    interval
c stabilizing:                   3        32.35 %  of conflicts
c substituted:                  15         0.24 %  of all variables
c subsumed:                  11442         0.33 %  of all clauses
c strengthened:               6421         0.18 %  of all clauses
c ternary:                    3483         0.70 %  of resolved
c vivified:                     46         0.00 %  of all clauses
c walked:                        1     31045.00    interval
c weakened:                   2781         3.01    average size
c 
c seconds are measured in process time for solving
c 
c --- [ resources ] ----------------------------------------------------------
c 
c total process time since initialization:        82.44    seconds
c total real time since initialization:           84.17    seconds
c maximum resident set size of process:         1609.02    MB
c 
c --- [ shutting down ] ------------------------------------------------------
c 
c exit 10
WARNING! DIMACS header mismatch: wrong number of variables.
============================[ Problem Statistics ]=============================
|                                                                             |
|  Number of variables:          3491                                         |
|  Number of clauses:          253712                                         |
|  Parse time:                   1.52 s                                       |
|  Simplification time:          0.03 s                                       |
|                                                                             |
============================[ Search Statistics ]====================================================
| Conflicts |          ORIGINAL         |          LEARNT          | Num Sols |      SUBGRAPHS      |
|           |    Vars  Clauses Literals |    Limit  Clauses Lit/Cl |          | Canonical Noncanon. |
=====================================================================================================
|       140 |    3396   253752 25050797 |     2000      140     83 |        0 |        18        40 |
|       293 |    3396   253755 25050845 |     2000      293     78 |        0 |        31        43 |
|       541 |    3396   253778 25051245 |     2000      541     84 |        0 |        52        66 |
|       893 |    3396   253793 25051559 |     2000      893     89 |        0 |        59        81 |
|      1413 |    3396   253807 25051923 |     2000     1413     96 |        0 |        70        95 |
|      2180 |    3396   253815 25052036 |     3600     1180     62 |        0 |        87       103 |
|      3346 |    3396   253842 25052677 |     3600     2346     72 |        0 |       115       130 |
|      5100 |    3396   253888 25053707 |     5001     2301     61 |        0 |       161       176 |
|      7753 |    3396   253979 25055481 |     5001     4954     79 |        0 |       205       267 |
|     11767 |    3396   254149 25057888 |     7557     3324     48 |        0 |       314       437 |
|     18076 |    3396   254692 25066297 |     8782     5858     61 |        0 |       514       980 |
|     27312 |    3396   255279 25074903 |    11203     5715     37 |        0 |       800      1567 |
|     40749 |    3396   255742 25083118 |    13608     7357     41 |        0 |      1019      2030 |
|     61043 |    3396   256575 25096401 |    16006    13449     58 |        0 |      1253      2863 |
|     91094 |    3396   257434 25111500 |    19613    17707     54 |        0 |      1678      3722 |
|    136089 |    3396   258640 25130505 |    24408    19897     51 |        0 |      2132      4928 |
|    204141 |    3396   261008 25174219 |    30409    20950     41 |        0 |      2727      7296 |
|    310123 |    3396   268464 25274520 |    37628    26751     53 |        0 |      3467     14752 |
|    462539 |    3396   273091 25350306 |    46027    34966     54 |        0 |      4697     19379 |
|    691365 |    3396   280234 25478457 |    56817    35182     39 |        0 |      6675     26522 |
|   1032147 |    3396   288491 25633990 |    68818    64965     53 |        0 |      7953     34779 |
|   1540620 |    3332   173307 14168899 |    59050    54070     58 |        0 |     10463     44464 |
=====================================================================================================
Number of solutions   : 9
Canonical subgraphs   : 12505          (7 /sec)
          order  3    : 1              (200000 /sec)
          order  4    : 1              (500000 /sec)
          order  5    : 1              (250000 /sec)
          order  6    : 1              (52632 /sec)
          order  7    : 1              (8772 /sec)
          order  8    : 2              (1369 /sec)
          order  9    : 6              (315 /sec)
          order 10    : 12             (58 /sec)
          order 11    : 57             (18 /sec)
          order 12    : 350            (6 /sec)
          order 13    : 1850           (5 /sec)
          order 14    : 4415           (6 /sec)
          order 15    : 2767           (8 /sec)
          order 16    : 1677           (9 /sec)
          order 17    : 1040           (8 /sec)
          order 18    : 152            (7 /sec)
          order 19    : 76             (8 /sec)
          order 20    : 46             (9 /sec)
          order 21    : 41             (9 /sec)
          order 22    : 9              (1 /sec)
Noncanonical subgraphs: 55226          (152 /sec)
          order  3    : 0              (-nan /sec)
          order  4    : 0              (-nan /sec)
          order  5    : 0              (-nan /sec)
          order  6    : 0              (-nan /sec)
          order  7    : 0              (-nan /sec)
          order  8    : 0              (-nan /sec)
          order  9    : 0              (-nan /sec)
          order 10    : 0              (-nan /sec)
          order 11    : 0              (-nan /sec)
          order 12    : 0              (-nan /sec)
          order 13    : 5439           (9476 /sec)
          order 14    : 9115           (3009 /sec)
          order 15    : 22022          (322 /sec)
          order 16    : 18387          (65 /sec)
          order 17    : 211            (71 /sec)
          order 18    : 17             (29 /sec)
          order 19    : 0              (-nan /sec)
          order 20    : 0              (-nan /sec)
          order 21    : 0              (-nan /sec)
Canonicity checking   : 1854.2 s
Noncanonicity checking: 362.55 s
Total canonicity time : 2216.75 s
database reductions   : 80
restarts              : 4090
conflicts             : 2059472        (654 /sec)
decisions             : 2640067        (0.00 % random) (838 /sec)
propagations          : 104771168      (33246 /sec)
conflict literals     : 185996444      (57.72 % deleted)
actual reward         : 0.253069
Memory used           : 381.00 MB
CPU time              : 3151.41 s

UNSATISFIABLE
